(set-info :smt-lib-version 2.6)
(set-logic QF_NIA)
(set-info :source |
Generated by: Cristina Borralleras, Daniel Larraz, Albert Oliveras, Enric Rodriguez-Carbonell, Albert Rubio
Generated on: 2017-04-27
Generator: VeryMax
Application: Termination proving
Target solver: barcelogic
|)
(set-info :license "https://creativecommons.org/licenses/by/4.0/")
(set-info :category "industrial")
(set-info :status sat)
(declare-fun Nl2main_a1 () Int)
(declare-fun Nl2main_b1 () Int)
(declare-fun Nl2main_am1 () Int)
(declare-fun Nl2main_bm1 () Int)
(declare-fun Nl2main_a2 () Int)
(declare-fun Nl2main_b2 () Int)
(declare-fun Nl2main_am2 () Int)
(declare-fun Nl2main_bm2 () Int)
(declare-fun lam0n0 () Int)
(declare-fun lam0n1 () Int)
(declare-fun lam0n2 () Int)
(declare-fun lam0n3 () Int)
(declare-fun lam0n4 () Int)
(declare-fun lam0n5 () Int)
(declare-fun Nl2CT1 () Int)
(declare-fun Nl2CT2 () Int)
(declare-fun lam1n0 () Int)
(declare-fun lam1n1 () Int)
(declare-fun lam1n2 () Int)
(declare-fun lam1n3 () Int)
(declare-fun lam1n4 () Int)
(declare-fun lam1n5 () Int)
(declare-fun lam2n0 () Int)
(declare-fun lam2n1 () Int)
(declare-fun lam2n2 () Int)
(declare-fun lam2n3 () Int)
(declare-fun lam2n4 () Int)
(declare-fun lam2n5 () Int)
(declare-fun lam3n0 () Int)
(declare-fun lam3n1 () Int)
(declare-fun lam3n2 () Int)
(declare-fun lam3n3 () Int)
(declare-fun lam3n4 () Int)
(declare-fun lam3n5 () Int)
(declare-fun lam3n6 () Int)
(declare-fun lam4n0 () Int)
(declare-fun lam4n1 () Int)
(declare-fun lam4n2 () Int)
(declare-fun lam4n3 () Int)
(declare-fun lam4n4 () Int)
(declare-fun lam4n5 () Int)
(declare-fun lam4n6 () Int)
(declare-fun lam5n0 () Int)
(declare-fun lam5n1 () Int)
(declare-fun lam5n2 () Int)
(declare-fun lam5n3 () Int)
(declare-fun lam5n4 () Int)
(declare-fun lam5n5 () Int)
(declare-fun lam5n6 () Int)
(declare-fun lam6n0 () Int)
(declare-fun lam6n1 () Int)
(declare-fun lam6n2 () Int)
(declare-fun lam6n3 () Int)
(declare-fun lam6n4 () Int)
(declare-fun lam6n5 () Int)
(declare-fun lam7n0 () Int)
(declare-fun lam7n1 () Int)
(declare-fun lam7n2 () Int)
(declare-fun lam7n3 () Int)
(declare-fun lam7n4 () Int)
(declare-fun lam7n5 () Int)
(declare-fun lam8n0 () Int)
(declare-fun lam8n1 () Int)
(declare-fun lam8n2 () Int)
(declare-fun lam8n3 () Int)
(declare-fun lam8n4 () Int)
(declare-fun lam8n5 () Int)
(declare-fun lam9n0 () Int)
(declare-fun lam9n1 () Int)
(declare-fun lam9n2 () Int)
(declare-fun lam9n3 () Int)
(declare-fun lam9n4 () Int)
(declare-fun lam10n0 () Int)
(declare-fun lam10n1 () Int)
(declare-fun lam10n2 () Int)
(declare-fun lam10n3 () Int)
(declare-fun lam10n4 () Int)
(declare-fun lam11n0 () Int)
(declare-fun lam11n1 () Int)
(declare-fun lam11n2 () Int)
(declare-fun lam11n3 () Int)
(declare-fun lam12n0 () Int)
(declare-fun lam12n1 () Int)
(declare-fun lam12n2 () Int)
(declare-fun lam12n3 () Int)
(declare-fun lam13n0 () Int)
(declare-fun lam13n1 () Int)
(declare-fun lam13n2 () Int)
(declare-fun lam14n0 () Int)
(declare-fun lam14n1 () Int)
(declare-fun lam14n2 () Int)
(declare-fun main_a () Int)
(declare-fun main_b () Int)
(declare-fun main_am () Int)
(declare-fun main_bm () Int)
(declare-fun lam18n0 () Int)
(declare-fun lam18n1 () Int)
(declare-fun lam18n2 () Int)
(declare-fun lam18n3 () Int)
(declare-fun lam18n4 () Int)
(declare-fun lam18n5 () Int)
(declare-fun RFN1_CT () Int)
(declare-fun RFN1_main_am () Int)
(declare-fun RFN1_main_a () Int)
(declare-fun RFN1_main_b () Int)
(declare-fun RFN1_main_bm () Int)
(declare-fun lam22n0 () Int)
(declare-fun lam22n1 () Int)
(declare-fun lam22n2 () Int)
(declare-fun lam22n3 () Int)
(declare-fun lam22n4 () Int)
(declare-fun lam22n5 () Int)
(declare-fun lam22n6 () Int)
(declare-fun lam16n0 () Int)
(declare-fun lam16n1 () Int)
(declare-fun lam16n2 () Int)
(declare-fun lam16n3 () Int)
(declare-fun lam16n4 () Int)
(declare-fun lam16n5 () Int)
(declare-fun lam17n0 () Int)
(declare-fun lam17n1 () Int)
(declare-fun lam17n2 () Int)
(declare-fun lam17n3 () Int)
(declare-fun lam17n4 () Int)
(declare-fun lam17n5 () Int)
(declare-fun lam20n0 () Int)
(declare-fun lam20n1 () Int)
(declare-fun lam20n2 () Int)
(declare-fun lam20n3 () Int)
(declare-fun lam20n4 () Int)
(declare-fun lam20n5 () Int)
(declare-fun lam20n6 () Int)
(declare-fun lam21n0 () Int)
(declare-fun lam21n1 () Int)
(declare-fun lam21n2 () Int)
(declare-fun lam21n3 () Int)
(declare-fun lam21n4 () Int)
(declare-fun lam21n5 () Int)
(declare-fun lam21n6 () Int)
(declare-fun lam15n0 () Int)
(declare-fun lam15n1 () Int)
(declare-fun lam15n2 () Int)
(declare-fun lam15n3 () Int)
(declare-fun lam15n4 () Int)
(declare-fun lam15n5 () Int)
(declare-fun lam19n0 () Int)
(declare-fun lam19n1 () Int)
(declare-fun lam19n2 () Int)
(declare-fun lam19n3 () Int)
(declare-fun lam19n4 () Int)
(declare-fun lam19n5 () Int)
(declare-fun lam19n6 () Int)
(assert ( and ( <= ( - 1 ) Nl2main_a1 ) ( <= Nl2main_a1 1 ) ( <= ( - 1 ) Nl2main_b1 ) ( <= Nl2main_b1 1 ) ( <= ( - 1 ) Nl2main_am1 ) ( <= Nl2main_am1 1 ) ( <= ( - 1 ) Nl2main_bm1 ) ( <= Nl2main_bm1 1 ) ( <= ( - 1 ) Nl2main_a2 ) ( <= Nl2main_a2 1 ) ( <= ( - 1 ) Nl2main_b2 ) ( <= Nl2main_b2 1 ) ( <= ( - 1 ) Nl2main_am2 ) ( <= Nl2main_am2 1 ) ( <= ( - 1 ) Nl2main_bm2 ) ( <= Nl2main_bm2 1 ) ))
(assert ( or ( and ( >= lam0n0 0 ) ( >= lam0n1 0 ) ( >= lam0n2 0 ) ( >= lam0n3 0 ) ( >= lam0n4 0 ) ( >= lam0n5 0 ) ( > ( + ( * 1 lam0n2 ) ( * 1 lam0n3 ) ( * Nl2CT1 lam0n4 ) ( * Nl2CT2 lam0n5 ) ( - 1 ) ) 0 ) ( = ( + ( * 1 lam0n0 ) ( * ( - 1 ) lam0n1 ) ( * ( - 1 ) lam0n2 ) ( * Nl2main_a1 lam0n4 ) ( * Nl2main_a2 lam0n5 ) ) 0 ) ( = ( + ( * 1 lam0n1 ) ( * 1 lam0n2 ) ( * Nl2main_b1 lam0n4 ) ( * Nl2main_b2 lam0n5 ) ) 0 ) ( = ( + ( * 1 lam0n2 ) ( * 1 lam0n3 ) ( * Nl2main_am1 lam0n4 ) ( * Nl2main_am2 lam0n5 ) ) 0 ) ( = ( + ( * ( - 1 ) lam0n2 ) ( * ( - 1 ) lam0n3 ) ( * Nl2main_bm1 lam0n4 ) ( * Nl2main_bm2 lam0n5 ) ) 0 ) ) ( and ( >= lam1n0 0 ) ( >= lam1n1 0 ) ( >= lam1n2 0 ) ( >= lam1n3 0 ) ( >= lam1n4 0 ) ( >= lam1n5 0 ) ( > ( + ( * 1 lam1n2 ) ( * 1 lam1n3 ) ( * Nl2CT1 lam1n4 ) ( * Nl2CT2 lam1n5 ) ( - 1 ( + Nl2CT1 ( * Nl2main_am1 0 ) ) ) ) 0 ) ( = ( + ( * 1 lam1n0 ) ( * ( - 1 ) lam1n1 ) ( * ( - 1 ) lam1n2 ) ( * Nl2main_a1 lam1n4 ) ( * Nl2main_a2 lam1n5 ) ( - ( + ( + 0 Nl2main_a1 ) ( * Nl2main_am1 1 ) ) ) ) 0 ) ( = ( + ( * 1 lam1n1 ) ( * 1 lam1n2 ) ( * Nl2main_b1 lam1n4 ) ( * Nl2main_b2 lam1n5 ) ( - ( + 0 Nl2main_b1 ) ) ) 0 ) ( = ( + ( * 1 lam1n2 ) ( * 1 lam1n3 ) ( * Nl2main_am1 lam1n4 ) ( * Nl2main_am2 lam1n5 ) ( - ( + 0 ( * Nl2main_am1 1 ) ) ) ) 0 ) ( = ( + ( * ( - 1 ) lam1n2 ) ( * ( - 1 ) lam1n3 ) ( * Nl2main_bm1 lam1n4 ) ( * Nl2main_bm2 lam1n5 ) ( - ( + 0 Nl2main_bm1 ) ) ) 0 ) ) ))
(assert ( or ( and ( >= lam0n0 0 ) ( >= lam0n1 0 ) ( >= lam0n2 0 ) ( >= lam0n3 0 ) ( >= lam0n4 0 ) ( >= lam0n5 0 ) ( > ( + ( * 1 lam0n2 ) ( * 1 lam0n3 ) ( * Nl2CT1 lam0n4 ) ( * Nl2CT2 lam0n5 ) ( - 1 ) ) 0 ) ( = ( + ( * 1 lam0n0 ) ( * ( - 1 ) lam0n1 ) ( * ( - 1 ) lam0n2 ) ( * Nl2main_a1 lam0n4 ) ( * Nl2main_a2 lam0n5 ) ) 0 ) ( = ( + ( * 1 lam0n1 ) ( * 1 lam0n2 ) ( * Nl2main_b1 lam0n4 ) ( * Nl2main_b2 lam0n5 ) ) 0 ) ( = ( + ( * 1 lam0n2 ) ( * 1 lam0n3 ) ( * Nl2main_am1 lam0n4 ) ( * Nl2main_am2 lam0n5 ) ) 0 ) ( = ( + ( * ( - 1 ) lam0n2 ) ( * ( - 1 ) lam0n3 ) ( * Nl2main_bm1 lam0n4 ) ( * Nl2main_bm2 lam0n5 ) ) 0 ) ) ( and ( >= lam2n0 0 ) ( >= lam2n1 0 ) ( >= lam2n2 0 ) ( >= lam2n3 0 ) ( >= lam2n4 0 ) ( >= lam2n5 0 ) ( > ( + ( * 1 lam2n2 ) ( * 1 lam2n3 ) ( * Nl2CT1 lam2n4 ) ( * Nl2CT2 lam2n5 ) ( - 1 ( + Nl2CT2 ( * Nl2main_am2 0 ) ) ) ) 0 ) ( = ( + ( * 1 lam2n0 ) ( * ( - 1 ) lam2n1 ) ( * ( - 1 ) lam2n2 ) ( * Nl2main_a1 lam2n4 ) ( * Nl2main_a2 lam2n5 ) ( - ( + ( + 0 Nl2main_a2 ) ( * Nl2main_am2 1 ) ) ) ) 0 ) ( = ( + ( * 1 lam2n1 ) ( * 1 lam2n2 ) ( * Nl2main_b1 lam2n4 ) ( * Nl2main_b2 lam2n5 ) ( - ( + 0 Nl2main_b2 ) ) ) 0 ) ( = ( + ( * 1 lam2n2 ) ( * 1 lam2n3 ) ( * Nl2main_am1 lam2n4 ) ( * Nl2main_am2 lam2n5 ) ( - ( + 0 ( * Nl2main_am2 1 ) ) ) ) 0 ) ( = ( + ( * ( - 1 ) lam2n2 ) ( * ( - 1 ) lam2n3 ) ( * Nl2main_bm1 lam2n4 ) ( * Nl2main_bm2 lam2n5 ) ( - ( + 0 Nl2main_bm2 ) ) ) 0 ) ) ))
(assert ( or ( and ( >= lam3n0 0 ) ( >= lam3n1 0 ) ( >= lam3n2 0 ) ( >= lam3n3 0 ) ( >= lam3n4 0 ) ( >= lam3n5 0 ) ( >= lam3n6 0 ) ( > ( + ( * 1 lam3n3 ) ( * 1 lam3n4 ) ( * Nl2CT1 lam3n5 ) ( * Nl2CT2 lam3n6 ) ( - 1 ) ) 0 ) ( = ( + ( * 1 lam3n0 ) ( * 1 lam3n1 ) ( * ( - 1 ) lam3n2 ) ( * 1 lam3n3 ) ( * Nl2main_a1 lam3n5 ) ( * Nl2main_a2 lam3n6 ) ) 0 ) ( = ( + ( * ( - 1 ) lam3n1 ) ( * 1 lam3n2 ) ( * 1 lam3n3 ) ( * Nl2main_b1 lam3n5 ) ( * Nl2main_b2 lam3n6 ) ) 0 ) ( = ( + ( * ( - 1 ) lam3n1 ) ( * ( - 1 ) lam3n3 ) ( * ( - 1 ) lam3n4 ) ( * Nl2main_am1 lam3n5 ) ( * Nl2main_am2 lam3n6 ) ) 0 ) ( = ( + ( * 1 lam3n1 ) ( * 1 lam3n3 ) ( * 1 lam3n4 ) ( * Nl2main_bm1 lam3n5 ) ( * Nl2main_bm2 lam3n6 ) ) 0 ) ) ( and ( >= lam4n0 0 ) ( >= lam4n1 0 ) ( >= lam4n2 0 ) ( >= lam4n3 0 ) ( >= lam4n4 0 ) ( >= lam4n5 0 ) ( >= lam4n6 0 ) ( > ( + ( * 1 lam4n3 ) ( * 1 lam4n4 ) ( * Nl2CT1 lam4n5 ) ( * Nl2CT2 lam4n6 ) ( - 1 ( + Nl2CT1 ( * Nl2main_bm1 0 ) ) ) ) 0 ) ( = ( + ( * 1 lam4n0 ) ( * 1 lam4n1 ) ( * ( - 1 ) lam4n2 ) ( * 1 lam4n3 ) ( * Nl2main_a1 lam4n5 ) ( * Nl2main_a2 lam4n6 ) ( - ( + 0 Nl2main_a1 ) ) ) 0 ) ( = ( + ( * ( - 1 ) lam4n1 ) ( * 1 lam4n2 ) ( * 1 lam4n3 ) ( * Nl2main_b1 lam4n5 ) ( * Nl2main_b2 lam4n6 ) ( - ( + ( + 0 Nl2main_b1 ) ( * Nl2main_bm1 1 ) ) ) ) 0 ) ( = ( + ( * ( - 1 ) lam4n1 ) ( * ( - 1 ) lam4n3 ) ( * ( - 1 ) lam4n4 ) ( * Nl2main_am1 lam4n5 ) ( * Nl2main_am2 lam4n6 ) ( - ( + 0 Nl2main_am1 ) ) ) 0 ) ( = ( + ( * 1 lam4n1 ) ( * 1 lam4n3 ) ( * 1 lam4n4 ) ( * Nl2main_bm1 lam4n5 ) ( * Nl2main_bm2 lam4n6 ) ( - ( + 0 ( * Nl2main_bm1 1 ) ) ) ) 0 ) ) ))
(assert ( or ( and ( >= lam3n0 0 ) ( >= lam3n1 0 ) ( >= lam3n2 0 ) ( >= lam3n3 0 ) ( >= lam3n4 0 ) ( >= lam3n5 0 ) ( >= lam3n6 0 ) ( > ( + ( * 1 lam3n3 ) ( * 1 lam3n4 ) ( * Nl2CT1 lam3n5 ) ( * Nl2CT2 lam3n6 ) ( - 1 ) ) 0 ) ( = ( + ( * 1 lam3n0 ) ( * 1 lam3n1 ) ( * ( - 1 ) lam3n2 ) ( * 1 lam3n3 ) ( * Nl2main_a1 lam3n5 ) ( * Nl2main_a2 lam3n6 ) ) 0 ) ( = ( + ( * ( - 1 ) lam3n1 ) ( * 1 lam3n2 ) ( * 1 lam3n3 ) ( * Nl2main_b1 lam3n5 ) ( * Nl2main_b2 lam3n6 ) ) 0 ) ( = ( + ( * ( - 1 ) lam3n1 ) ( * ( - 1 ) lam3n3 ) ( * ( - 1 ) lam3n4 ) ( * Nl2main_am1 lam3n5 ) ( * Nl2main_am2 lam3n6 ) ) 0 ) ( = ( + ( * 1 lam3n1 ) ( * 1 lam3n3 ) ( * 1 lam3n4 ) ( * Nl2main_bm1 lam3n5 ) ( * Nl2main_bm2 lam3n6 ) ) 0 ) ) ( and ( >= lam5n0 0 ) ( >= lam5n1 0 ) ( >= lam5n2 0 ) ( >= lam5n3 0 ) ( >= lam5n4 0 ) ( >= lam5n5 0 ) ( >= lam5n6 0 ) ( > ( + ( * 1 lam5n3 ) ( * 1 lam5n4 ) ( * Nl2CT1 lam5n5 ) ( * Nl2CT2 lam5n6 ) ( - 1 ( + Nl2CT2 ( * Nl2main_bm2 0 ) ) ) ) 0 ) ( = ( + ( * 1 lam5n0 ) ( * 1 lam5n1 ) ( * ( - 1 ) lam5n2 ) ( * 1 lam5n3 ) ( * Nl2main_a1 lam5n5 ) ( * Nl2main_a2 lam5n6 ) ( - ( + 0 Nl2main_a2 ) ) ) 0 ) ( = ( + ( * ( - 1 ) lam5n1 ) ( * 1 lam5n2 ) ( * 1 lam5n3 ) ( * Nl2main_b1 lam5n5 ) ( * Nl2main_b2 lam5n6 ) ( - ( + ( + 0 Nl2main_b2 ) ( * Nl2main_bm2 1 ) ) ) ) 0 ) ( = ( + ( * ( - 1 ) lam5n1 ) ( * ( - 1 ) lam5n3 ) ( * ( - 1 ) lam5n4 ) ( * Nl2main_am1 lam5n5 ) ( * Nl2main_am2 lam5n6 ) ( - ( + 0 Nl2main_am2 ) ) ) 0 ) ( = ( + ( * 1 lam5n1 ) ( * 1 lam5n3 ) ( * 1 lam5n4 ) ( * Nl2main_bm1 lam5n5 ) ( * Nl2main_bm2 lam5n6 ) ( - ( + 0 ( * Nl2main_bm2 1 ) ) ) ) 0 ) ) ))
(assert ( or ( and ( >= lam6n0 0 ) ( >= lam6n1 0 ) ( >= lam6n2 0 ) ( >= lam6n3 0 ) ( >= lam6n4 0 ) ( >= lam6n5 0 ) ( > ( + ( * 1 lam6n2 ) ( * 1 lam6n3 ) ( * Nl2CT1 lam6n4 ) ( * Nl2CT2 lam6n5 ) ( - 1 ) ) 0 ) ( = ( + ( * 1 lam6n0 ) ( * ( - 1 ) lam6n1 ) ( * ( - 1 ) lam6n2 ) ( * Nl2main_a1 lam6n4 ) ( * Nl2main_a2 lam6n5 ) ) 0 ) ( = ( + ( * 1 lam6n1 ) ( * 1 lam6n2 ) ( * Nl2main_b1 lam6n4 ) ( * Nl2main_b2 lam6n5 ) ) 0 ) ( = ( + ( * 1 lam6n2 ) ( * ( - 1 ) lam6n3 ) ( * Nl2main_am1 lam6n4 ) ( * Nl2main_am2 lam6n5 ) ) 0 ) ( = ( + ( * ( - 1 ) lam6n2 ) ( * 1 lam6n3 ) ( * Nl2main_bm1 lam6n4 ) ( * Nl2main_bm2 lam6n5 ) ) 0 ) ) ( and ( >= lam7n0 0 ) ( >= lam7n1 0 ) ( >= lam7n2 0 ) ( >= lam7n3 0 ) ( >= lam7n4 0 ) ( >= lam7n5 0 ) ( > ( + ( * 1 lam7n2 ) ( * 1 lam7n3 ) ( * Nl2CT1 lam7n4 ) ( * Nl2CT2 lam7n5 ) ( - 1 ( + Nl2CT1 ( * Nl2main_bm1 0 ) ) ) ) 0 ) ( = ( + ( * 1 lam7n0 ) ( * ( - 1 ) lam7n1 ) ( * ( - 1 ) lam7n2 ) ( * Nl2main_a1 lam7n4 ) ( * Nl2main_a2 lam7n5 ) ( - ( + 0 Nl2main_a1 ) ) ) 0 ) ( = ( + ( * 1 lam7n1 ) ( * 1 lam7n2 ) ( * Nl2main_b1 lam7n4 ) ( * Nl2main_b2 lam7n5 ) ( - ( + ( + 0 Nl2main_b1 ) ( * Nl2main_bm1 1 ) ) ) ) 0 ) ( = ( + ( * 1 lam7n2 ) ( * ( - 1 ) lam7n3 ) ( * Nl2main_am1 lam7n4 ) ( * Nl2main_am2 lam7n5 ) ( - ( + 0 Nl2main_am1 ) ) ) 0 ) ( = ( + ( * ( - 1 ) lam7n2 ) ( * 1 lam7n3 ) ( * Nl2main_bm1 lam7n4 ) ( * Nl2main_bm2 lam7n5 ) ( - ( + 0 ( * Nl2main_bm1 1 ) ) ) ) 0 ) ) ))
(assert ( or ( and ( >= lam6n0 0 ) ( >= lam6n1 0 ) ( >= lam6n2 0 ) ( >= lam6n3 0 ) ( >= lam6n4 0 ) ( >= lam6n5 0 ) ( > ( + ( * 1 lam6n2 ) ( * 1 lam6n3 ) ( * Nl2CT1 lam6n4 ) ( * Nl2CT2 lam6n5 ) ( - 1 ) ) 0 ) ( = ( + ( * 1 lam6n0 ) ( * ( - 1 ) lam6n1 ) ( * ( - 1 ) lam6n2 ) ( * Nl2main_a1 lam6n4 ) ( * Nl2main_a2 lam6n5 ) ) 0 ) ( = ( + ( * 1 lam6n1 ) ( * 1 lam6n2 ) ( * Nl2main_b1 lam6n4 ) ( * Nl2main_b2 lam6n5 ) ) 0 ) ( = ( + ( * 1 lam6n2 ) ( * ( - 1 ) lam6n3 ) ( * Nl2main_am1 lam6n4 ) ( * Nl2main_am2 lam6n5 ) ) 0 ) ( = ( + ( * ( - 1 ) lam6n2 ) ( * 1 lam6n3 ) ( * Nl2main_bm1 lam6n4 ) ( * Nl2main_bm2 lam6n5 ) ) 0 ) ) ( and ( >= lam8n0 0 ) ( >= lam8n1 0 ) ( >= lam8n2 0 ) ( >= lam8n3 0 ) ( >= lam8n4 0 ) ( >= lam8n5 0 ) ( > ( + ( * 1 lam8n2 ) ( * 1 lam8n3 ) ( * Nl2CT1 lam8n4 ) ( * Nl2CT2 lam8n5 ) ( - 1 ( + Nl2CT2 ( * Nl2main_bm2 0 ) ) ) ) 0 ) ( = ( + ( * 1 lam8n0 ) ( * ( - 1 ) lam8n1 ) ( * ( - 1 ) lam8n2 ) ( * Nl2main_a1 lam8n4 ) ( * Nl2main_a2 lam8n5 ) ( - ( + 0 Nl2main_a2 ) ) ) 0 ) ( = ( + ( * 1 lam8n1 ) ( * 1 lam8n2 ) ( * Nl2main_b1 lam8n4 ) ( * Nl2main_b2 lam8n5 ) ( - ( + ( + 0 Nl2main_b2 ) ( * Nl2main_bm2 1 ) ) ) ) 0 ) ( = ( + ( * 1 lam8n2 ) ( * ( - 1 ) lam8n3 ) ( * Nl2main_am1 lam8n4 ) ( * Nl2main_am2 lam8n5 ) ( - ( + 0 Nl2main_am2 ) ) ) 0 ) ( = ( + ( * ( - 1 ) lam8n2 ) ( * 1 lam8n3 ) ( * Nl2main_bm1 lam8n4 ) ( * Nl2main_bm2 lam8n5 ) ( - ( + 0 ( * Nl2main_bm2 1 ) ) ) ) 0 ) ) ))
(assert ( or ( and ( <= main_a 0 ) ( <= ( + ( * ( - 1 ) main_a ) main_b ) 0 ) ( not ( <= ( + ( * ( - 1 ) main_a ) ( * ( - 1 ) main_b ) main_am ( * ( - 1 ) main_bm ) ) 0 ) ) ( = ( + main_a ( * ( - 1 ) main_am ) ) 0 ) ( = ( + main_b ( * ( - 1 ) main_bm ) ) 0 ) ( <= ( + Nl2CT1 ( * ( + 0 Nl2main_a1 ) main_a ) ( * ( + 0 Nl2main_b1 ) main_b ) ( * ( + 0 Nl2main_am1 ) main_am ) ( * ( + 0 Nl2main_bm1 ) main_bm ) ) 0 ) ( <= ( + Nl2CT2 ( * ( + 0 Nl2main_a2 ) main_a ) ( * ( + 0 Nl2main_b2 ) main_b ) ( * ( + 0 Nl2main_am2 ) main_am ) ( * ( + 0 Nl2main_bm2 ) main_bm ) ) 0 ) ( <= main_a 0 ) ( <= ( + ( * ( - 1 ) main_a ) main_b ) 0 ) ) ( and ( <= main_a 0 ) ( not ( <= ( + ( * ( - 1 ) main_a ) main_b ) 0 ) ) ( = ( + main_a ( * ( - 1 ) main_am ) ) 0 ) ( = ( + main_b ( * ( - 1 ) main_bm ) ) 0 ) ( <= ( + Nl2CT1 ( * ( + 0 Nl2main_a1 ) main_a ) ( * ( + 0 Nl2main_b1 ) main_b ) ( * ( + 0 Nl2main_am1 ) main_am ) ( * ( + 0 Nl2main_bm1 ) main_bm ) ) 0 ) ( <= ( + Nl2CT2 ( * ( + 0 Nl2main_a2 ) main_a ) ( * ( + 0 Nl2main_b2 ) main_b ) ( * ( + 0 Nl2main_am2 ) main_am ) ( * ( + 0 Nl2main_bm2 ) main_bm ) ) 0 ) ( <= main_a 0 ) ( <= ( + ( * ( - 1 ) main_a ) main_b ) 0 ) ) ( and ( not ( <= main_a 0 ) ) ( = ( + main_a ( * ( - 1 ) main_am ) ) 0 ) ( = ( + main_b ( * ( - 1 ) main_bm ) ) 0 ) ( <= ( + Nl2CT1 ( * ( + 0 Nl2main_a1 ) main_a ) ( * ( + 0 Nl2main_b1 ) main_b ) ( * ( + 0 Nl2main_am1 ) main_am ) ( * ( + 0 Nl2main_bm1 ) main_bm ) ) 0 ) ( <= ( + Nl2CT2 ( * ( + 0 Nl2main_a2 ) main_a ) ( * ( + 0 Nl2main_b2 ) main_b ) ( * ( + 0 Nl2main_am2 ) main_am ) ( * ( + 0 Nl2main_bm2 ) main_bm ) ) 0 ) ( <= main_a 0 ) ( <= ( + ( * ( - 1 ) main_a ) main_b ) 0 ) ) ))
(assert ( or ( and ( and ( and ( >= lam18n0 0 ) ( >= lam18n1 0 ) ( >= lam18n2 0 ) ( >= lam18n3 0 ) ( >= lam18n4 0 ) ( >= lam18n5 0 ) ( > ( + ( * 1 lam18n2 ) ( * 1 lam18n3 ) ( * Nl2CT1 lam18n4 ) ( * Nl2CT2 lam18n5 ) ( - 1 ( - ( + RFN1_CT ( * RFN1_main_am 0 ) ) RFN1_CT ) ) ) 0 ) ( = ( + ( * 1 lam18n0 ) ( * ( - 1 ) lam18n1 ) ( * ( - 1 ) lam18n2 ) ( * Nl2main_a1 lam18n4 ) ( * Nl2main_a2 lam18n5 ) ( - ( - ( + ( + 0 RFN1_main_a ) ( * RFN1_main_am 1 ) ) RFN1_main_a ) ) ) 0 ) ( = ( + ( * 1 lam18n1 ) ( * 1 lam18n2 ) ( * Nl2main_b1 lam18n4 ) ( * Nl2main_b2 lam18n5 ) ( - ( - ( + 0 RFN1_main_b ) RFN1_main_b ) ) ) 0 ) ( = ( + ( * 1 lam18n2 ) ( * 1 lam18n3 ) ( * Nl2main_am1 lam18n4 ) ( * Nl2main_am2 lam18n5 ) ( - ( - ( + 0 ( * RFN1_main_am 1 ) ) RFN1_main_am ) ) ) 0 ) ( = ( + ( * ( - 1 ) lam18n2 ) ( * ( - 1 ) lam18n3 ) ( * Nl2main_bm1 lam18n4 ) ( * Nl2main_bm2 lam18n5 ) ( - ( - ( + 0 RFN1_main_bm ) RFN1_main_bm ) ) ) 0 ) ) ( and ( >= lam22n0 0 ) ( >= lam22n1 0 ) ( >= lam22n2 0 ) ( >= lam22n3 0 ) ( >= lam22n4 0 ) ( >= lam22n5 0 ) ( >= lam22n6 0 ) ( > ( + ( * 1 lam22n3 ) ( * 1 lam22n4 ) ( * Nl2CT1 lam22n5 ) ( * Nl2CT2 lam22n6 ) ( - 1 ( - ( + RFN1_CT ( * RFN1_main_bm 0 ) ) RFN1_CT ) ) ) 0 ) ( = ( + ( * 1 lam22n0 ) ( * 1 lam22n1 ) ( * ( - 1 ) lam22n2 ) ( * 1 lam22n3 ) ( * Nl2main_a1 lam22n5 ) ( * Nl2main_a2 lam22n6 ) ( - ( - ( + 0 RFN1_main_a ) RFN1_main_a ) ) ) 0 ) ( = ( + ( * ( - 1 ) lam22n1 ) ( * 1 lam22n2 ) ( * 1 lam22n3 ) ( * Nl2main_b1 lam22n5 ) ( * Nl2main_b2 lam22n6 ) ( - ( - ( + ( + 0 RFN1_main_b ) ( * RFN1_main_bm 1 ) ) RFN1_main_b ) ) ) 0 ) ( = ( + ( * ( - 1 ) lam22n1 ) ( * ( - 1 ) lam22n3 ) ( * ( - 1 ) lam22n4 ) ( * Nl2main_am1 lam22n5 ) ( * Nl2main_am2 lam22n6 ) ( - ( - ( + 0 RFN1_main_am ) RFN1_main_am ) ) ) 0 ) ( = ( + ( * 1 lam22n1 ) ( * 1 lam22n3 ) ( * 1 lam22n4 ) ( * Nl2main_bm1 lam22n5 ) ( * Nl2main_bm2 lam22n6 ) ( - ( - ( + 0 ( * RFN1_main_bm 1 ) ) RFN1_main_bm ) ) ) 0 ) ) ) ( or ( and ( and ( >= lam16n0 0 ) ( >= lam16n1 0 ) ( >= lam16n2 0 ) ( >= lam16n3 0 ) ( >= lam16n4 0 ) ( >= lam16n5 0 ) ( > ( + ( * 1 lam16n2 ) ( * 1 lam16n3 ) ( * Nl2CT1 lam16n4 ) ( * Nl2CT2 lam16n5 ) ( - 1 ( - RFN1_CT ) ) ) 0 ) ( = ( + ( * 1 lam16n0 ) ( * ( - 1 ) lam16n1 ) ( * ( - 1 ) lam16n2 ) ( * Nl2main_a1 lam16n4 ) ( * Nl2main_a2 lam16n5 ) ( - ( - RFN1_main_a ) ) ) 0 ) ( = ( + ( * 1 lam16n1 ) ( * 1 lam16n2 ) ( * Nl2main_b1 lam16n4 ) ( * Nl2main_b2 lam16n5 ) ( - ( - RFN1_main_b ) ) ) 0 ) ( = ( + ( * 1 lam16n2 ) ( * 1 lam16n3 ) ( * Nl2main_am1 lam16n4 ) ( * Nl2main_am2 lam16n5 ) ( - ( - RFN1_main_am ) ) ) 0 ) ( = ( + ( * ( - 1 ) lam16n2 ) ( * ( - 1 ) lam16n3 ) ( * Nl2main_bm1 lam16n4 ) ( * Nl2main_bm2 lam16n5 ) ( - ( - RFN1_main_bm ) ) ) 0 ) ) ( and ( >= lam17n0 0 ) ( >= lam17n1 0 ) ( >= lam17n2 0 ) ( >= lam17n3 0 ) ( >= lam17n4 0 ) ( >= lam17n5 0 ) ( > ( + ( * 1 lam17n2 ) ( * 1 lam17n3 ) ( * Nl2CT1 lam17n4 ) ( * Nl2CT2 lam17n5 ) ( - 1 ( + ( - ( + RFN1_CT ( * RFN1_main_am 0 ) ) RFN1_CT ) 1 ) ) ) 0 ) ( = ( + ( * 1 lam17n0 ) ( * ( - 1 ) lam17n1 ) ( * ( - 1 ) lam17n2 ) ( * Nl2main_a1 lam17n4 ) ( * Nl2main_a2 lam17n5 ) ( - ( - ( + ( + 0 RFN1_main_a ) ( * RFN1_main_am 1 ) ) RFN1_main_a ) ) ) 0 ) ( = ( + ( * 1 lam17n1 ) ( * 1 lam17n2 ) ( * Nl2main_b1 lam17n4 ) ( * Nl2main_b2 lam17n5 ) ( - ( - ( + 0 RFN1_main_b ) RFN1_main_b ) ) ) 0 ) ( = ( + ( * 1 lam17n2 ) ( * 1 lam17n3 ) ( * Nl2main_am1 lam17n4 ) ( * Nl2main_am2 lam17n5 ) ( - ( - ( + 0 ( * RFN1_main_am 1 ) ) RFN1_main_am ) ) ) 0 ) ( = ( + ( * ( - 1 ) lam17n2 ) ( * ( - 1 ) lam17n3 ) ( * Nl2main_bm1 lam17n4 ) ( * Nl2main_bm2 lam17n5 ) ( - ( - ( + 0 RFN1_main_bm ) RFN1_main_bm ) ) ) 0 ) ) ) ( and ( and ( >= lam20n0 0 ) ( >= lam20n1 0 ) ( >= lam20n2 0 ) ( >= lam20n3 0 ) ( >= lam20n4 0 ) ( >= lam20n5 0 ) ( >= lam20n6 0 ) ( > ( + ( * 1 lam20n3 ) ( * 1 lam20n4 ) ( * Nl2CT1 lam20n5 ) ( * Nl2CT2 lam20n6 ) ( - 1 ( - RFN1_CT ) ) ) 0 ) ( = ( + ( * 1 lam20n0 ) ( * 1 lam20n1 ) ( * ( - 1 ) lam20n2 ) ( * 1 lam20n3 ) ( * Nl2main_a1 lam20n5 ) ( * Nl2main_a2 lam20n6 ) ( - ( - RFN1_main_a ) ) ) 0 ) ( = ( + ( * ( - 1 ) lam20n1 ) ( * 1 lam20n2 ) ( * 1 lam20n3 ) ( * Nl2main_b1 lam20n5 ) ( * Nl2main_b2 lam20n6 ) ( - ( - RFN1_main_b ) ) ) 0 ) ( = ( + ( * ( - 1 ) lam20n1 ) ( * ( - 1 ) lam20n3 ) ( * ( - 1 ) lam20n4 ) ( * Nl2main_am1 lam20n5 ) ( * Nl2main_am2 lam20n6 ) ( - ( - RFN1_main_am ) ) ) 0 ) ( = ( + ( * 1 lam20n1 ) ( * 1 lam20n3 ) ( * 1 lam20n4 ) ( * Nl2main_bm1 lam20n5 ) ( * Nl2main_bm2 lam20n6 ) ( - ( - RFN1_main_bm ) ) ) 0 ) ) ( and ( >= lam21n0 0 ) ( >= lam21n1 0 ) ( >= lam21n2 0 ) ( >= lam21n3 0 ) ( >= lam21n4 0 ) ( >= lam21n5 0 ) ( >= lam21n6 0 ) ( > ( + ( * 1 lam21n3 ) ( * 1 lam21n4 ) ( * Nl2CT1 lam21n5 ) ( * Nl2CT2 lam21n6 ) ( - 1 ( + ( - ( + RFN1_CT ( * RFN1_main_bm 0 ) ) RFN1_CT ) 1 ) ) ) 0 ) ( = ( + ( * 1 lam21n0 ) ( * 1 lam21n1 ) ( * ( - 1 ) lam21n2 ) ( * 1 lam21n3 ) ( * Nl2main_a1 lam21n5 ) ( * Nl2main_a2 lam21n6 ) ( - ( - ( + 0 RFN1_main_a ) RFN1_main_a ) ) ) 0 ) ( = ( + ( * ( - 1 ) lam21n1 ) ( * 1 lam21n2 ) ( * 1 lam21n3 ) ( * Nl2main_b1 lam21n5 ) ( * Nl2main_b2 lam21n6 ) ( - ( - ( + ( + 0 RFN1_main_b ) ( * RFN1_main_bm 1 ) ) RFN1_main_b ) ) ) 0 ) ( = ( + ( * ( - 1 ) lam21n1 ) ( * ( - 1 ) lam21n3 ) ( * ( - 1 ) lam21n4 ) ( * Nl2main_am1 lam21n5 ) ( * Nl2main_am2 lam21n6 ) ( - ( - ( + 0 RFN1_main_am ) RFN1_main_am ) ) ) 0 ) ( = ( + ( * 1 lam21n1 ) ( * 1 lam21n3 ) ( * 1 lam21n4 ) ( * Nl2main_bm1 lam21n5 ) ( * Nl2main_bm2 lam21n6 ) ( - ( - ( + 0 ( * RFN1_main_bm 1 ) ) RFN1_main_bm ) ) ) 0 ) ) ) ) ) ( or ( and ( >= lam15n0 0 ) ( >= lam15n1 0 ) ( >= lam15n2 0 ) ( >= lam15n3 0 ) ( >= lam15n4 0 ) ( >= lam15n5 0 ) ( > ( + ( * 1 lam15n2 ) ( * 1 lam15n3 ) ( * Nl2CT1 lam15n4 ) ( * Nl2CT2 lam15n5 ) ( - 1 ) ) 0 ) ( = ( + ( * 1 lam15n0 ) ( * ( - 1 ) lam15n1 ) ( * ( - 1 ) lam15n2 ) ( * Nl2main_a1 lam15n4 ) ( * Nl2main_a2 lam15n5 ) ) 0 ) ( = ( + ( * 1 lam15n1 ) ( * 1 lam15n2 ) ( * Nl2main_b1 lam15n4 ) ( * Nl2main_b2 lam15n5 ) ) 0 ) ( = ( + ( * 1 lam15n2 ) ( * 1 lam15n3 ) ( * Nl2main_am1 lam15n4 ) ( * Nl2main_am2 lam15n5 ) ) 0 ) ( = ( + ( * ( - 1 ) lam15n2 ) ( * ( - 1 ) lam15n3 ) ( * Nl2main_bm1 lam15n4 ) ( * Nl2main_bm2 lam15n5 ) ) 0 ) ) ( and ( >= lam19n0 0 ) ( >= lam19n1 0 ) ( >= lam19n2 0 ) ( >= lam19n3 0 ) ( >= lam19n4 0 ) ( >= lam19n5 0 ) ( >= lam19n6 0 ) ( > ( + ( * 1 lam19n3 ) ( * 1 lam19n4 ) ( * Nl2CT1 lam19n5 ) ( * Nl2CT2 lam19n6 ) ( - 1 ) ) 0 ) ( = ( + ( * 1 lam19n0 ) ( * 1 lam19n1 ) ( * ( - 1 ) lam19n2 ) ( * 1 lam19n3 ) ( * Nl2main_a1 lam19n5 ) ( * Nl2main_a2 lam19n6 ) ) 0 ) ( = ( + ( * ( - 1 ) lam19n1 ) ( * 1 lam19n2 ) ( * 1 lam19n3 ) ( * Nl2main_b1 lam19n5 ) ( * Nl2main_b2 lam19n6 ) ) 0 ) ( = ( + ( * ( - 1 ) lam19n1 ) ( * ( - 1 ) lam19n3 ) ( * ( - 1 ) lam19n4 ) ( * Nl2main_am1 lam19n5 ) ( * Nl2main_am2 lam19n6 ) ) 0 ) ( = ( + ( * 1 lam19n1 ) ( * 1 lam19n3 ) ( * 1 lam19n4 ) ( * Nl2main_bm1 lam19n5 ) ( * Nl2main_bm2 lam19n6 ) ) 0 ) ) ) ))
(check-sat)
(exit)
